c nIsolatedPIs 32
c maxPI 96
p cnf 332 709
c gate 97 36 84 0
36 -97 0
84 -97 0
-36 -84 97 0
c gate 98 -35 -83 0
-35 -98 0
-83 -98 0
35 83 98 0
c gate 99 31 79 0
31 -99 0
79 -99 0
-31 -79 99 0
c gate 100 32 80 0
32 -100 0
80 -100 0
-32 -80 100 0
c gate 101 -99 -100 0
-99 -101 0
-100 -101 0
99 100 101 0
c gate 102 -31 -79 0
-31 -102 0
-79 -102 0
31 79 102 0
c gate 103 29 77 0
29 -103 0
77 -103 0
-29 -77 103 0
c gate 104 30 78 0
30 -104 0
78 -104 0
-30 -78 104 0
c gate 105 -103 -104 0
-103 -105 0
-104 -105 0
103 104 105 0
c gate 106 -30 -78 0
-30 -106 0
-78 -106 0
30 78 106 0
c gate 107 -105 -106 0
-105 -107 0
-106 -107 0
105 106 107 0
c gate 108 -26 -74 0
-26 -108 0
-74 -108 0
26 74 108 0
c gate 109 -27 -75 0
-27 -109 0
-75 -109 0
27 75 109 0
c gate 110 -108 -109 0
-108 -110 0
-109 -110 0
108 109 110 0
c gate 111 -25 -73 0
-25 -111 0
-73 -111 0
25 73 111 0
c gate 112 110 -111 0
110 -112 0
-111 -112 0
-110 111 112 0
c gate 113 24 72 0
24 -113 0
72 -113 0
-24 -72 113 0
c gate 114 -24 -72 0
-24 -114 0
-72 -114 0
24 72 114 0
c gate 115 23 71 0
23 -115 0
71 -115 0
-23 -71 115 0
c gate 116 -22 -70 0
-22 -116 0
-70 -116 0
22 70 116 0
c gate 117 -23 -71 0
-23 -117 0
-71 -117 0
23 71 117 0
c gate 118 -116 -117 0
-116 -118 0
-117 -118 0
116 117 118 0
c gate 119 -20 -68 0
-20 -119 0
-68 -119 0
20 68 119 0
c gate 120 -21 -69 0
-21 -120 0
-69 -120 0
21 69 120 0
c gate 121 -119 -120 0
-119 -121 0
-120 -121 0
119 120 121 0
c gate 122 17 65 0
17 -122 0
65 -122 0
-17 -65 122 0
c gate 123 18 66 0
18 -123 0
66 -123 0
-18 -66 123 0
c gate 124 -122 -123 0
-122 -124 0
-123 -124 0
122 123 124 0
c gate 125 -19 -67 0
-19 -125 0
-67 -125 0
19 67 125 0
c gate 126 -18 -66 0
-18 -126 0
-66 -126 0
18 66 126 0
c gate 127 -125 -126 0
-125 -127 0
-126 -127 0
125 126 127 0
c gate 128 -124 127 0
-124 -128 0
127 -128 0
124 -127 128 0
c gate 129 19 67 0
19 -129 0
67 -129 0
-19 -67 129 0
c gate 130 20 68 0
20 -130 0
68 -130 0
-20 -68 130 0
c gate 131 -129 -130 0
-129 -131 0
-130 -131 0
129 130 131 0
c gate 132 -128 131 0
-128 -132 0
131 -132 0
128 -131 132 0
c gate 133 121 -132 0
121 -133 0
-132 -133 0
-121 132 133 0
c gate 134 22 70 0
22 -134 0
70 -134 0
-22 -70 134 0
c gate 135 21 69 0
21 -135 0
69 -135 0
-21 -69 135 0
c gate 136 -134 -135 0
-134 -136 0
-135 -136 0
134 135 136 0
c gate 137 -133 136 0
-133 -137 0
136 -137 0
133 -136 137 0
c gate 138 118 -137 0
118 -138 0
-137 -138 0
-118 137 138 0
c gate 139 -115 -138 0
-115 -139 0
-138 -139 0
115 138 139 0
c gate 140 -114 -139 0
-114 -140 0
-139 -140 0
114 139 140 0
c gate 141 -113 -140 0
-113 -141 0
-140 -141 0
113 140 141 0
c gate 142 15 63 0
15 -142 0
63 -142 0
-15 -63 142 0
c gate 143 16 64 0
16 -143 0
64 -143 0
-16 -64 143 0
c gate 144 -142 -143 0
-142 -144 0
-143 -144 0
142 143 144 0
c gate 145 -16 -64 0
-16 -145 0
-64 -145 0
16 64 145 0
c gate 146 -144 -145 0
-144 -146 0
-145 -146 0
144 145 146 0
c gate 147 13 61 0
13 -147 0
61 -147 0
-13 -61 147 0
c gate 148 14 62 0
14 -148 0
62 -148 0
-14 -62 148 0
c gate 149 -147 -148 0
-147 -149 0
-148 -149 0
147 148 149 0
c gate 150 -14 -62 0
-14 -150 0
-62 -150 0
14 62 150 0
c gate 151 -149 -150 0
-149 -151 0
-150 -151 0
149 150 151 0
c gate 152 2 50 0
2 -152 0
50 -152 0
-2 -50 152 0
c gate 153 1 49 0
1 -153 0
49 -153 0
-1 -49 153 0
c gate 154 -152 -153 0
-152 -154 0
-153 -154 0
152 153 154 0
c gate 155 -3 -51 0
-3 -155 0
-51 -155 0
3 51 155 0
c gate 156 -2 -50 0
-2 -156 0
-50 -156 0
2 50 156 0
c gate 157 -155 -156 0
-155 -157 0
-156 -157 0
155 156 157 0
c gate 158 -154 157 0
-154 -158 0
157 -158 0
154 -157 158 0
c gate 159 4 52 0
4 -159 0
52 -159 0
-4 -52 159 0
c gate 160 3 51 0
3 -160 0
51 -160 0
-3 -51 160 0
c gate 161 -159 -160 0
-159 -161 0
-160 -161 0
159 160 161 0
c gate 162 -158 161 0
-158 -162 0
161 -162 0
158 -161 162 0
c gate 163 -5 -53 0
-5 -163 0
-53 -163 0
5 53 163 0
c gate 164 -4 -52 0
-4 -164 0
-52 -164 0
4 52 164 0
c gate 165 -163 -164 0
-163 -165 0
-164 -165 0
163 164 165 0
c gate 166 -162 165 0
-162 -166 0
165 -166 0
162 -165 166 0
c gate 167 6 54 0
6 -167 0
54 -167 0
-6 -54 167 0
c gate 168 5 53 0
5 -168 0
53 -168 0
-5 -53 168 0
c gate 169 -167 -168 0
-167 -169 0
-168 -169 0
167 168 169 0
c gate 170 -166 169 0
-166 -170 0
169 -170 0
166 -169 170 0
c gate 171 -7 -55 0
-7 -171 0
-55 -171 0
7 55 171 0
c gate 172 -6 -54 0
-6 -172 0
-54 -172 0
6 54 172 0
c gate 173 -171 -172 0
-171 -173 0
-172 -173 0
171 172 173 0
c gate 174 -170 173 0
-170 -174 0
173 -174 0
170 -173 174 0
c gate 175 8 56 0
8 -175 0
56 -175 0
-8 -56 175 0
c gate 176 7 55 0
7 -176 0
55 -176 0
-7 -55 176 0
c gate 177 -175 -176 0
-175 -177 0
-176 -177 0
175 176 177 0
c gate 178 -174 177 0
-174 -178 0
177 -178 0
174 -177 178 0
c gate 179 11 59 0
11 -179 0
59 -179 0
-11 -59 179 0
c gate 180 12 60 0
12 -180 0
60 -180 0
-12 -60 180 0
c gate 181 -179 -180 0
-179 -181 0
-180 -181 0
179 180 181 0
c gate 182 -12 -60 0
-12 -182 0
-60 -182 0
12 60 182 0
c gate 183 -11 -59 0
-11 -183 0
-59 -183 0
11 59 183 0
c gate 184 -182 -183 0
-182 -184 0
-183 -184 0
182 183 184 0
c gate 185 181 184 0
181 -185 0
184 -185 0
-181 -184 185 0
c gate 186 9 57 0
9 -186 0
57 -186 0
-9 -57 186 0
c gate 187 10 58 0
10 -187 0
58 -187 0
-10 -58 187 0
c gate 188 -186 -187 0
-186 -188 0
-187 -188 0
186 187 188 0
c gate 189 -9 -57 0
-9 -189 0
-57 -189 0
9 57 189 0
c gate 190 -8 -56 0
-8 -190 0
-56 -190 0
8 56 190 0
c gate 191 -10 -58 0
-10 -191 0
-58 -191 0
10 58 191 0
c gate 192 -190 -191 0
-190 -192 0
-191 -192 0
190 191 192 0
c gate 193 -189 192 0
-189 -193 0
192 -193 0
189 -192 193 0
c gate 194 188 193 0
188 -194 0
193 -194 0
-188 -193 194 0
c gate 195 185 194 0
185 -195 0
194 -195 0
-185 -194 195 0
c gate 196 -178 195 0
-178 -196 0
195 -196 0
178 -195 196 0
c gate 197 -181 -182 0
-181 -197 0
-182 -197 0
181 182 197 0
c gate 198 -188 -191 0
-188 -198 0
-191 -198 0
188 191 198 0
c gate 199 185 198 0
185 -199 0
198 -199 0
-185 -198 199 0
c gate 200 -197 -199 0
-197 -200 0
-199 -200 0
197 199 200 0
c gate 201 -196 200 0
-196 -201 0
200 -201 0
196 -200 201 0
c gate 202 -13 -61 0
-13 -202 0
-61 -202 0
13 61 202 0
c gate 203 -150 -202 0
-150 -203 0
-202 -203 0
150 202 203 0
c gate 204 149 203 0
149 -204 0
203 -204 0
-149 -203 204 0
c gate 205 -201 204 0
-201 -205 0
204 -205 0
201 -204 205 0
c gate 206 -151 -205 0
-151 -206 0
-205 -206 0
151 205 206 0
c gate 207 -15 -63 0
-15 -207 0
-63 -207 0
15 63 207 0
c gate 208 -145 -207 0
-145 -208 0
-207 -208 0
145 207 208 0
c gate 209 144 208 0
144 -209 0
208 -209 0
-144 -208 209 0
c gate 210 -206 209 0
-206 -210 0
209 -210 0
206 -209 210 0
c gate 211 -146 -210 0
-146 -211 0
-210 -211 0
146 210 211 0
c gate 212 -17 -65 0
-17 -212 0
-65 -212 0
17 65 212 0
c gate 213 121 -212 0
121 -213 0
-212 -213 0
-121 212 213 0
c gate 214 127 213 0
127 -214 0
213 -214 0
-127 -213 214 0
c gate 215 132 214 0
132 -215 0
214 -215 0
-132 -214 215 0
c gate 216 -211 215 0
-211 -216 0
215 -216 0
211 -215 216 0
c gate 217 137 -216 0
137 -217 0
-216 -217 0
-137 216 217 0
c gate 218 118 -217 0
118 -218 0
-217 -218 0
-118 217 218 0
c gate 219 -115 -218 0
-115 -219 0
-218 -219 0
115 218 219 0
c gate 220 -114 -219 0
-114 -220 0
-219 -220 0
114 219 220 0
c gate 221 141 -220 0
141 -221 0
-220 -221 0
-141 220 221 0
c gate 222 112 -221 0
112 -222 0
-221 -222 0
-112 221 222 0
c gate 223 25 73 0
25 -223 0
73 -223 0
-25 -73 223 0
c gate 224 26 74 0
26 -224 0
74 -224 0
-26 -74 224 0
c gate 225 -223 -224 0
-223 -225 0
-224 -225 0
223 224 225 0
c gate 226 110 -225 0
110 -226 0
-225 -226 0
-110 225 226 0
c gate 227 27 75 0
27 -227 0
75 -227 0
-27 -75 227 0
c gate 228 28 76 0
28 -228 0
76 -228 0
-28 -76 228 0
c gate 229 -227 -228 0
-227 -229 0
-228 -229 0
227 228 229 0
c gate 230 -226 229 0
-226 -230 0
229 -230 0
226 -229 230 0
c gate 231 -222 230 0
-222 -231 0
230 -231 0
222 -230 231 0
c gate 232 -28 -76 0
-28 -232 0
-76 -232 0
28 76 232 0
c gate 233 -29 -77 0
-29 -233 0
-77 -233 0
29 77 233 0
c gate 234 -106 -233 0
-106 -234 0
-233 -234 0
106 233 234 0
c gate 235 -232 234 0
-232 -235 0
234 -235 0
232 -234 235 0
c gate 236 105 235 0
105 -236 0
235 -236 0
-105 -235 236 0
c gate 237 -231 236 0
-231 -237 0
236 -237 0
231 -236 237 0
c gate 238 -107 -237 0
-107 -238 0
-237 -238 0
107 237 238 0
c gate 239 -102 -238 0
-102 -239 0
-238 -239 0
102 238 239 0
c gate 240 101 -239 0
101 -240 0
-239 -240 0
-101 239 240 0
c gate 241 -34 -82 0
-34 -241 0
-82 -241 0
34 82 241 0
c gate 242 -33 -81 0
-33 -242 0
-81 -242 0
33 81 242 0
c gate 243 -32 -80 0
-32 -243 0
-80 -243 0
32 80 243 0
c gate 244 -242 -243 0
-242 -244 0
-243 -244 0
242 243 244 0
c gate 245 -241 244 0
-241 -245 0
244 -245 0
241 -244 245 0
c gate 246 -240 245 0
-240 -246 0
245 -246 0
240 -245 246 0
c gate 247 33 81 0
33 -247 0
81 -247 0
-33 -81 247 0
c gate 248 -241 247 0
-241 -248 0
247 -248 0
241 -247 248 0
c gate 249 34 82 0
34 -249 0
82 -249 0
-34 -82 249 0
c gate 250 35 83 0
35 -250 0
83 -250 0
-35 -83 250 0
c gate 251 -249 -250 0
-249 -251 0
-250 -251 0
249 250 251 0
c gate 252 -248 251 0
-248 -252 0
251 -252 0
248 -251 252 0
c gate 253 -246 252 0
-246 -253 0
252 -253 0
246 -252 253 0
c gate 254 -98 -253 0
-98 -254 0
-253 -254 0
98 253 254 0
c gate 255 -97 -254 0
-97 -255 0
-254 -255 0
97 254 255 0
c gate 256 -38 -86 0
-38 -256 0
-86 -256 0
38 86 256 0
c gate 257 -39 -87 0
-39 -257 0
-87 -257 0
39 87 257 0
c gate 258 -256 -257 0
-256 -258 0
-257 -258 0
256 257 258 0
c gate 259 37 85 0
37 -259 0
85 -259 0
-37 -85 259 0
c gate 260 38 86 0
38 -260 0
86 -260 0
-38 -86 260 0
c gate 261 -259 -260 0
-259 -261 0
-260 -261 0
259 260 261 0
c gate 262 258 -261 0
258 -262 0
-261 -262 0
-258 261 262 0
c gate 263 40 88 0
40 -263 0
88 -263 0
-40 -88 263 0
c gate 264 39 87 0
39 -264 0
87 -264 0
-39 -87 264 0
c gate 265 -263 -264 0
-263 -265 0
-264 -265 0
263 264 265 0
c gate 266 -262 265 0
-262 -266 0
265 -266 0
262 -265 266 0
c gate 267 -40 -88 0
-40 -267 0
-88 -267 0
40 88 267 0
c gate 268 -37 -85 0
-37 -268 0
-85 -268 0
37 85 268 0
c gate 269 -36 -84 0
-36 -269 0
-84 -269 0
36 84 269 0
c gate 270 -268 -269 0
-268 -270 0
-269 -270 0
268 269 270 0
c gate 271 -267 270 0
-267 -271 0
270 -271 0
267 -270 271 0
c gate 272 258 271 0
258 -272 0
271 -272 0
-258 -271 272 0
c gate 273 266 272 0
266 -273 0
272 -273 0
-266 -272 273 0
c gate 274 -255 273 0
-255 -274 0
273 -274 0
255 -273 274 0
c gate 275 -200 204 0
-200 -275 0
204 -275 0
200 -204 275 0
c gate 276 -151 -275 0
-151 -276 0
-275 -276 0
151 275 276 0
c gate 277 208 -276 0
208 -277 0
-276 -277 0
-208 276 277 0
c gate 278 -146 -277 0
-146 -278 0
-277 -278 0
146 277 278 0
c gate 279 215 -278 0
215 -279 0
-278 -279 0
-215 278 279 0
c gate 280 137 -279 0
137 -280 0
-279 -280 0
-137 279 280 0
c gate 281 -116 -280 0
-116 -281 0
-280 -281 0
116 280 281 0
c gate 282 -115 -281 0
-115 -282 0
-281 -282 0
115 281 282 0
c gate 283 -117 -282 0
-117 -283 0
-282 -283 0
117 282 283 0
c gate 284 219 283 0
219 -284 0
283 -284 0
-219 -283 284 0
c gate 285 -114 141 0
-114 -285 0
141 -285 0
114 -141 285 0
c gate 286 283 -285 0
283 -286 0
-285 -286 0
-283 285 286 0
c gate 287 -219 -286 0
-219 -287 0
-286 -287 0
219 286 287 0
c gate 288 210 276 0
210 -288 0
276 -288 0
-210 -276 288 0
c gate 289 -102 -243 0
-102 -289 0
-243 -289 0
102 243 289 0
c gate 290 101 289 0
101 -290 0
289 -290 0
-101 -289 290 0
c gate 291 112 290 0
112 -291 0
290 -291 0
-112 -290 291 0
c gate 292 230 291 0
230 -292 0
291 -292 0
-230 -291 292 0
c gate 293 236 292 0
236 -293 0
292 -293 0
-236 -292 293 0
c gate 294 -141 293 0
-141 -294 0
293 -294 0
141 -293 294 0
c gate 295 -44 -92 0
-44 -295 0
-92 -295 0
44 92 295 0
c gate 296 46 94 0
46 -296 0
94 -296 0
-46 -94 296 0
c gate 297 45 93 0
45 -297 0
93 -297 0
-45 -93 297 0
c gate 298 -296 -297 0
-296 -298 0
-297 -298 0
296 297 298 0
c gate 299 -295 298 0
-295 -299 0
298 -299 0
295 -298 299 0
c gate 300 -41 -89 0
-41 -300 0
-89 -300 0
41 89 300 0
c gate 301 43 91 0
43 -301 0
91 -301 0
-43 -91 301 0
c gate 302 -300 -301 0
-300 -302 0
-301 -302 0
300 301 302 0
c gate 303 -46 -94 0
-46 -303 0
-94 -303 0
46 94 303 0
c gate 304 -42 -90 0
-42 -304 0
-90 -304 0
42 90 304 0
c gate 305 -303 -304 0
-303 -305 0
-304 -305 0
303 304 305 0
c gate 306 302 305 0
302 -306 0
305 -306 0
-302 -305 306 0
c gate 307 -47 -95 0
-47 -307 0
-95 -307 0
47 95 307 0
c gate 308 42 90 0
42 -308 0
90 -308 0
-42 -90 308 0
c gate 309 -307 -308 0
-307 -309 0
-308 -309 0
307 308 309 0
c gate 310 -43 -91 0
-43 -310 0
-91 -310 0
43 91 310 0
c gate 311 41 89 0
41 -311 0
89 -311 0
-41 -89 311 0
c gate 312 -310 -311 0
-310 -312 0
-311 -312 0
310 311 312 0
c gate 313 309 312 0
309 -313 0
312 -313 0
-309 -312 313 0
c gate 314 306 313 0
306 -314 0
313 -314 0
-306 -313 314 0
c gate 315 299 314 0
299 -315 0
314 -315 0
-299 -314 315 0
c gate 316 48 -96 0
48 -316 0
-96 -316 0
-48 96 316 0
c gate 317 -48 96 0
-48 -317 0
96 -317 0
48 -96 317 0
c gate 318 -316 -317 0
-316 -318 0
-317 -318 0
316 317 318 0
c gate 319 44 92 0
44 -319 0
92 -319 0
-44 -92 319 0
c gate 320 -267 -319 0
-267 -320 0
-319 -320 0
267 319 320 0
c gate 321 -45 -93 0
-45 -321 0
-93 -321 0
45 93 321 0
c gate 322 47 95 0
47 -322 0
95 -322 0
-47 -95 322 0
c gate 323 -321 -322 0
-321 -323 0
-322 -323 0
321 322 323 0
c gate 324 320 323 0
320 -324 0
323 -324 0
-320 -323 324 0
c gate 325 -318 324 0
-318 -325 0
324 -325 0
318 -324 325 0
c gate 326 -266 325 0
-266 -326 0
325 -326 0
266 -325 326 0
c gate 327 315 326 0
315 -327 0
326 -327 0
-315 -326 327 0
c gate 328 -294 -327 0
-294 -328 0
-327 -328 0
294 327 328 0
c gate 329 -288 328 0
-288 -329 0
328 -329 0
288 -328 329 0
c gate 330 -287 329 0
-287 -330 0
329 -330 0
287 -329 330 0
c gate 331 -284 330 0
-284 -331 0
330 -331 0
284 -330 331 0
c gate 332 -274 331 0
-274 -332 0
331 -332 0
274 -331 332 0
c PO
-332 0
